NAME : portgen-16-30
COMMENT : portgen N=16, seed=30
TYPE : TSP
DIMENSION : 16
EDGE_WEIGHT_TYPE : EUC_2D
NODE_COORD_SECTION
1 743835 671467
2 663770 985840
3 436997 433418
4 600577 261737
5 567884 321694
6 358317 480926
7 227928 546842
8 554349 586711
9 771639 939185
10 150361 901650
11 396502 752878
12 107058 14608
13 335754 847162
14 946603 712349
15 213479 873778
16 573081 902596
